row=6;
column=6;
left=[6, 9, 0, 11, 15, 16];
right=[20, 0, 12, 10, 0, 6];
top=[0, 0, 11, 10, 0, 13];
bottom=[16, 15, 0, 0, 8, 0];
Board=[|0,0,0,0,0,0|3,2,0,0,0,0|0,6,0,3,0,0|0,0,0,0,0,0|4,0,6,0,0,3|0,4,0,5,0,6|]